TCS_Benchmarks/redos_fix/snort4_output_distinct_81_80_0_0.txt
(.*)([^&]*)
(.*)([tT][iI][mM][eE][tT][oO][lL][iI][vV][eE]=)([^&]*)